phonon calc. 
 &INPUTPH
                      outdir = "./" ,
                      prefix = "si" ,
                      fildyn = 'si.dyn' ,
                       ldisp = .true.,
                    amass(1) = 28.0855,
                      tr2_ph = 1d-14 ,
                         nq1 = 4 ,
                         nq2 = 4 ,
                         nq3 = 4 ,
 /


