 &Bands
                      outdir = './' ,
                      prefix = 'si' ,
		     filband = 'si.bands', 
 /
