 &INPUTPP
                      prefix = 'si' ,
                      outdir = './' ,
                    plot_num = 0,
 /
 &PLOT
                       nfile = 1 ,
                   weight(1) = 1.0,
                     fileout = 'si_rho.dat' ,
                       iflag = 2 ,
               output_format = 2 ,
     e1(1) =1.0, e1(2)=1.0, e1(3) = 0.0,
     e2(1) =0.0, e2(2)=0.0, e2(3) = 1.0,
     nx=56, ny=40
 /

