 &CONTROL
                 calculation = 'vc-relax' ,
                restart_mode = 'from_scratch' ,
                      outdir = './' ,
                  pseudo_dir = './' ,
                      prefix = 'si' ,
               forc_conv_thr = 1d-5 ,
 /
 &SYSTEM
                       ibrav = 2,
                   celldm(1) = 10.2625,
                         nat = 2,
                        ntyp = 1,
                     ecutwfc = 40.0 ,
                     ecutrho = 480.0 ,
 /
 &ELECTRONS
                    conv_thr = 1d-8 ,
                 mixing_beta = 0.7 ,
 /
 &IONS
                ion_dynamics = 'bfgs' ,
 /
 &CELL
               cell_dynamics = 'bfgs' ,
                       press = 0.0 ,
              press_conv_thr = 0.5 ,
 /
ATOMIC_SPECIES
   Si   28.08550  Si.pbe-rrkj.UPF 
ATOMIC_POSITIONS alat 
   Si      0.000000000    0.000000000    0.000000000    
   Si      0.250000000    0.250000000    0.250000000    
K_POINTS automatic 
  4 4 4   1 1 1 

